GLPSOL: GLPK LP/MIP Solver, v4.65
Parameter(s) specified in the command line:
 --cpxlp /tmp/54bf0efa6ad146578a1cb0faece5f68c-pulp.lp -o /tmp/54bf0efa6ad146578a1cb0faece5f68c-pulp.sol
 --tmlim 15
Reading problem data from '/tmp/54bf0efa6ad146578a1cb0faece5f68c-pulp.lp'...
24900 rows, 8000 columns, 68475 non-zeros
36871 lines were read
GLPK Simplex Optimizer, v4.65
24900 rows, 8000 columns, 68475 non-zeros
Preprocessing...
5171 rows, 3281 columns, 17128 non-zeros
Scaling...
 A: min|aij| =  5.000e-01  max|aij| =  5.000e+00  ratio =  1.000e+01
Problem data seem to be well scaled
Constructing initial basis...
Size of triangular part is 5145
      0: obj =   7.000000000e+00 inf =   8.845e+02 (314)
   1493: obj =   1.400000000e+01 inf =   9.875e-15 (0) 10
*  1575: obj =   1.600000000e+01 inf =   2.057e-13 (0) 1
OPTIMAL LP SOLUTION FOUND
Time used:   0.2 secs
Memory used: 18.0 Mb (18884688 bytes)
Writing basic solution to '/tmp/54bf0efa6ad146578a1cb0faece5f68c-pulp.sol'...
GLPSOL: GLPK LP/MIP Solver, v4.65
Parameter(s) specified in the command line:
 --cpxlp /tmp/c8f1d174e75848beabbb4c62b45b7fe5-pulp.lp -o /tmp/c8f1d174e75848beabbb4c62b45b7fe5-pulp.sol
 --tmlim 15
Reading problem data from '/tmp/c8f1d174e75848beabbb4c62b45b7fe5-pulp.lp'...
24900 rows, 8000 columns, 68475 non-zeros
8000 integer variables, all of which are binary
36871 lines were read
GLPK Integer Optimizer, v4.65
24900 rows, 8000 columns, 68475 non-zeros
8000 integer variables, all of which are binary
Preprocessing...
2272 hidden packing inequaliti(es) were detected
16 hidden covering inequaliti(es) were detected
5171 rows, 3281 columns, 17128 non-zeros
3281 integer variables, all of which are binary
Scaling...
 A: min|aij| =  5.000e-01  max|aij| =  5.000e+00  ratio =  1.000e+01
Problem data seem to be well scaled
Constructing initial basis...
Size of triangular part is 5145
Solving LP relaxation...
GLPK Simplex Optimizer, v4.65
5171 rows, 3281 columns, 17128 non-zeros
      0: obj =   7.000000000e+00 inf =   8.845e+02 (314)
   1506: obj =   1.433333333e+01 inf =   1.277e-14 (0) 10
*  1571: obj =   1.600000000e+01 inf =   2.445e-13 (0) 1
OPTIMAL LP SOLUTION FOUND
Integer optimization begins...
Long-step dual simplex will be used
+  1571: mip =     not found yet <=              +inf        (1; 0)
+  2590: >>>>>   1.600000000e+01 <=   1.600000000e+01 < 0.1% (44; 6)
+  2590: mip =   1.600000000e+01 <=     tree is empty   0.0% (0; 99)
INTEGER OPTIMAL SOLUTION FOUND
Time used:   2.7 secs
Memory used: 17.1 Mb (17977072 bytes)
Writing MIP solution to '/tmp/c8f1d174e75848beabbb4c62b45b7fe5-pulp.sol'...
